10 6 15 4 11 17 8 14 12 5 9 19 16 0 18 13 7 2 1 3  
10 6 15 4 11 17 8 14 12 5 9 19 16 18 0 2 13 7 1 3  
10 6 15 4 11 18 14 7 8 17 12 5 9 19 2 1 0 13 16 3  
10 6 15 4 11 17 8 14 12 5 9 19 1 0 18 13 7 2 16 3  
10 6 15 4 18 11 17 8 14 12 5 9 13 16 7 2 0 1 3 19  
10 6 15 4 11 14 8 17 12 5 9 19 1 0 18 13 7 2 16 3  
10 6 15 4 18 14 17 8 11 12 5 9 13 2 16 7 0 1 3 19  
10 6 4 18 14 11 8 5 9 19 16 0 15 2 3 13 12 17 1 7  
10 6 15 4 11 17 8 18 14 19 12 5 9 13 2 16 0 1 7 3  
10 6 15 4 18 14 11 7 8 17 12 5 9 19 2 1 0 13 16 3  
10 6 15 4 11 17 8 14 12 5 9 19 1 0 18 13 7 2 16 3  
10 6 15 4 11 17 8 14 12 5 9 19 16 0 18 13 7 2 1 3  
10 6 15 4 11 17 8 14 12 5 9 18 19 7 2 1 0 13 16 3  
10 6 15 4 18 14 11 7 8 17 12 5 9 19 2 1 0 13 16 3  
10 6 15 4 11 17 8 18 14 12 5 9 19 2 13 16 0 1 7 3  
10 6 15 4 11 18 14 7 8 17 12 5 9 19 2 1 0 13 16 3  
10 6 15 4 11 18 14 17 8 12 5 9 19 2 1 0 13 16 7 3  
10 6 15 4 18 14 11 7 8 17 12 5 9 19 2 1 0 13 16 3  
10 6 15 4 18 14 11 7 8 17 12 5 9 19 2 1 0 13 16 3  
10 6 4 18 14 8 11 5 9 19 16 0 15 7 3 13 12 17 1 2  
6 10 4 15 18 11 7 8 17 12 5 9 19 2 1 0 13 16 3 14  
10 6 15 4 11 18 14 17 8 12 5 9 19 2 7 1 0 13 16 3  
6 10 4 15 18 11 7 8 17 12 5 9 19 2 1 0 13 16 3 14  
10 6 15 4 11 18 14 17 8 12 5 9 19 1 7 2 0 13 16 3  
10 6 15 4 18 14 11 7 8 17 12 5 9 19 2 13 16 0 1 3  
10 6 15 4 11 17 8 14 12 5 9 19 16 18 0 13 2 1 7 3  
10 6 15 4 18 11 14 17 8 12 5 9 19 2 7 1 0 13 16 3  
10 6 4 18 14 8 11 5 9 19 16 0 15 7 3 13 12 17 1 2  
10 6 15 4 11 17 8 14 12 5 9 19 18 1 0 13 7 2 16 3  
10 6 15 4 11 18 14 17 8 12 5 9 19 2 16 7 0 1 13 3  
10 6 15 4 11 17 8 14 12 5 9 19 1 0 18 13 7 2 16 3  
10 6 15 4 11 18 14 17 8 12 0 9 19 16 5 13 7 2 3 1  
10 6 4 18 14 8 11 5 9 19 16 15 0 7 3 13 12 17 1 2  
10 6 15 4 11 18 14 0 8 12 5 9 19 2 13 16 17 1 7 3  
10 6 15 4 18 11 14 17 8 12 5 9 19 2 1 0 13 16 7 3  
10 6 15 4 11 18 17 8 14 12 5 9 13 16 7 2 0 1 3 19  
10 6 15 4 11 17 8 14 12 5 9 19 16 18 0 13 1 7 2 3  
10 6 15 4 11 18 14 17 8 12 5 9 19 16 7 0 3 13 2 1  
10 6 15 4 11 17 8 14 12 5 9 18 19 7 2 1 0 13 16 3  
10 6 15 4 18 14 11 17 8 12 5 9 19 2 16 7 0 1 13 3  
10 6 15 4 18 14 17 8 11 12 5 9 13 2 16 7 0 1 3 19  
10 6 4 18 14 8 11 5 9 19 16 0 15 7 3 13 12 17 2 1  
10 6 15 4 11 17 8 14 12 5 9 19 16 18 0 13 7 2 3 1  
10 6 15 4 11 17 8 14 12 5 9 19 16 18 0 13 1 7 2 3  
10 6 15 4 11 17 8 14 12 5 9 19 1 0 18 13 7 2 16 3  
